c 197_4_checker_5cl.cnf
c
c field = 197
c formula set type = 4_checker_5cl
c
p cnf 5 6
390 
394 
396 
398 
-400 
391 
395 
397 
399 
-401 
302 
332 
362 
422 
-272 
303 
333 
363 
423 
-273 
308 
336 
364 
420 
-280 
309 
337 
365 
421 
-281 
